%mem=60GB
%nprocshared=28
# opt=(calcfc,verytight) freq cbs-qb3 nosymm geom=connectivity
ccsd=maxcyc=1000 optcyc=200 iop(7/33=1)

Title Card Required

0 2
 C                 -4.27471132    0.23748395    0.00000000
 H                 -3.91805689   -0.77132605    0.00000000
 C                 -3.76136910    0.96344022    1.25740497
 H                 -4.11786416    1.97230655    1.25730739
 H                 -4.11820136    0.45915442    2.13105625
 C                 -2.22136913    0.96317746    1.25754524
 H                 -1.86453715    1.46743064    0.38387502
 C                 -1.70802690    1.68918043    2.51492324
 H                 -2.06486527    1.18493087    3.38859295
 H                 -0.63802692    1.68899198    2.51502410
 H                 -2.06451584    2.69804892    2.51478507
 Cl                -3.68803450    1.06714826   -1.43703425
 Cl                -1.63498531   -0.69626642    1.25776718

 1 2 1.0 3 1.0 12 1.0
 2
 3 4 1.0 5 1.0 6 1.0
 4
 5
 6 7 1.0 8 1.0 13 1.0
 7
 8 9 1.0 10 1.0 11 1.0
 9
 10
 11
 12
 13

