# opt=(calcfc,tight,noeigentest) freq cbs-qb3 scf=qc geom=connectivity
ccsd=maxcyc=1000 optcyc=100

Title Card Required

0 2
 C                 -3.09729558   -1.39024388   -0.04054582
 H                 -2.74064115   -2.39905388   -0.04054582
 H                 -2.74062274   -0.88584569   -0.91419733
 H                 -4.16729558   -1.39023070   -0.04054582
 C                 -2.58395336   -0.66428761    1.21685915
 H                 -2.94060635    0.34452290    1.21685827
 C                 -1.04395336   -0.66430843    1.21686062
 H                 -0.68727936   -0.16007855    0.34311243
 H                 -0.68728103   -0.15974240    2.09041541
 O                 -3.06063020   -1.33838971    2.38444878
 H                 -3.59260396   -0.73483006    2.90820413
 O                 -0.56730467   -2.01253169    1.21712044

 1 2 1.0 3 1.0 4 1.0 5 1.0
 2
 3
 4
 5 6 1.0 7 1.0 10 1.0
 6
 7 8 1.0 9 1.0 12 1.0
 8
 9
 10 11 1.0
 11
 12