# opt=(calcfc,tight,ts,noeigentest) freq cbs-qb3 scf=qc geom=connectivity
ccsd=maxcyc=1000 optcyc=100

Title Card Required

0 2
 C                 -4.14915500    2.06178500   -0.08701800
 H                 -5.17561100    2.18738500   -0.44463100
 H                 -3.93782100    2.84784300    0.64019300
 H                 -3.46589900    2.18357300   -0.93090000
 C                 -3.96387000    0.68847000    0.54138700
 H                 -4.64459200    0.58395700    1.41015400
 C                 -4.30010500   -0.56636000   -0.37114700
 H                 -5.33108800   -0.93527100   -0.29966200
 H                 -4.13395000   -0.23639500   -1.41408000
 O                 -2.67601300    0.44346200    0.94779200
 O                 -3.37967000   -1.50954000   -0.00183500
 H                 -2.69438900   -0.70997600    0.58568700

 1 2 1.0 3 1.0 4 1.0 5 1.0
 2
 3
 4
 5 6 1.0 7 1.0 10 1.0
 6
 7 8 1.0 9 1.0 11 1.0
 8
 9
 10
 11
 12

